50 80
13 33
16 29
1 49
14 22
17 21
8 18
5 19
0 23
5 12
17 23
12 36
6 13
27 45
16 24
2 43
20 24
38 48
12 47
30 43
0 48
25 47
4 18
12 31
12 49
8 27
23 42
9 37
42 49
25 42
26 34
38 45
40 42
30 31
2 24
9 39
25 35
7 32
23 37
8 15
8 24
15 47
10 14
22 43
36 42
14 39
5 36
11 40
15 22
18 27
5 20
9 18
28 31
9 27
11 33
17 49
6 12
12 16
8 12
1 6
19 30
8 30
37 45
25 37
4 14
15 44
5 15
39 47
20 43
25 30
21 23
0 3
12 32
9 15
5 26
2 9
22 42
12 41
11 21
14 38
17 37
50
